DATASET = "thpack3";
INSTANCE = "038";

WIDTH = 233;
HEIGHT = 220;
LENGTH = 587;

NO_OF_SHAPES = 8;
size = [|
  104,94,50 |
  102,87,36 |
  115,42,33 |
  61,58,32 |
  70,62,48 |
  91,79,78 |
  90,57,53 |
  78,68,25 |
|];

verticality = [|
  0,1,1 |
  0,0,1 |
  0,1,1 |
  1,1,1 |
  1,1,1 |
  1,1,1 |
  1,1,1 |
  0,0,1 |
|];

box_count = [
  14,
  14,
  10,
  14,
  9,
  13,
  17,
  12,
];
